7456
4191
4129
4247
4330
4113
4196
4291
4352
4041
4167
4306
4240
4260
4425
4244
4136
4152
4341
4268
4462
4244
4599
4349
4502
4398
4306
4249
4272
4334
4260
4357
4954
4808
4431
4544
4356
4193
4430
4290
4383
4436
4334
4255
4498
4393
4347
4244
4101
4138
3996
4386
4187
4261
4155
4178
4433
4602
4630
4186
4681
4473
4393
4561
4924
4313
4359
4408
4373
4565
4700
4202
4461
4445
4645
4589
4317
4384
4339
4346
4547
4524
4603
4519
4374
4544
4249
4354
4292
4514
4607
6030
5102
5667
6258
4946
4741
4790
4426
4367
